130 6468
1 41 71 130 50 2 80 46 20 118 35 4 93 22 44 42 51 60 120 53 49 58 106 38 79 116 100 54 18 8 108 114 3 83 30 59 90 125 66 85 78 121 126 21 33 37 40 47 23 13 10 14 67 96 122 55 102 6 91 72 92 73 99 74 75 52 65 56 9 57 82 101 123 111 119 84 36 113 32 25 48 68 98 110 89 94 77 103 81 87 12 95 24 29 15 19 27 31 17 34 127 107 104 43 63 70 97 7 26 88 86 69 64 124 129 61 109 76 11 5 45 16 128 105 62 28 115 112 117 39 
